language ESSENCE' 1.0

letting C_FunctionND be
        [[0, 0, 1, 1; int(0..3)], [1, 0, 0, 1; int(0..3)], [0, 0, 0, 0; int(0..3)], [0, 0, 1, 0; int(0..3)]; int(0..3)]
$ Visualisation for C_FunctionND
$ 0 0 1 1
$ 1 0 0 1
$ 0 0 0 0
$ 0 0 1 0

